8759 9241 1075
10035 9965 1024
7355 10645 1104
8490 11510 1057
7379 9621 1104
9402 10598 1051
8157 11843 1049
10865 8135 935
9238 10762 877
7354 12646 990
11061 8939 868
11307 7693 852
7608 12392 1010
9426 9574 1051
6798 13202 939
10336 9664 1006
8098 10902 1088
11460 7540 817
9714 9286 1039
11060 8940 875
